20:49:26 | INFO    | Run started | run_id: MR_MV_RD_case2_P5_R3_eps9999 | log file: C:\Users\Asus\Documents\GitHub\logistics-model2\internal-logistics-model2\results\MR_MV_RD\case2\MR_MV_RD_case2_P5_R3_eps9999_2026_05_04_20_49.log
20:49:26 | INFO    | Products loaded | sheet=case2 | rows=10
20:49:26 | INFO    | Data loaded | |N|=26 |Nw|=25 |K|=3 |R|=3 |P|=5 | U=25
20:49:26 | INFO    | Big-M | time=491.0 precedence=480.0 wait=465.0 load_lb=20 load_ub=20
20:49:26 | INFO    | Set parameter Username
20:49:26 | INFO    | Set parameter LicenseID to value 2811848
20:49:26 | INFO    | Academic license - for non-commercial use only - expires 2027-04-22
20:49:26 | INFO    | Objective set | primary: min route_duration | tie-break weight on wait: 0.001
20:49:26 | INFO    | Constraint (3) added | total_wait <= 9999
20:49:26 | INFO    | Constraints (4)-(9) added | route structure
20:49:26 | INFO    | Constraints (10)-(12) added | product assignment
20:49:26 | INFO    | Constraints (13)-(15) added | route timing
20:49:27 | INFO    | Constraints (16) added | time consistency
20:49:27 | INFO    | Constraints (17)-(19) added | service times
20:49:27 | INFO    | Constraints (20)-(22) added | precedence, route closure, waiting
20:49:27 | INFO    | Constraints (23)-(27) added | load propagation
20:49:27 | INFO    | Constraints (28)-(32) added | MTZ and route ordering
20:49:27 | INFO    | Set parameter TimeLimit to value 600
20:49:27 | INFO    | Set parameter MIPGap to value 0.01
20:49:27 | INFO    | Set parameter Presolve to value 2
20:49:27 | INFO    | Set parameter LogFile to value "C:\Users\Asus\Documents\GitHub\logistics-model2\internal-logistics-model2\results\MR_MV_RD\case2\result_MR_MV_RD_case2_P5_R3_eps9999_2026_05_04_20_49.log"
20:49:27 | INFO    | Solver configured | TimeLimit=600s | MIPGap=0.01 | gurobi_log=C:\Users\Asus\Documents\GitHub\logistics-model2\internal-logistics-model2\results\MR_MV_RD\case2\result_MR_MV_RD_case2_P5_R3_eps9999_2026_05_04_20_49.log
20:49:27 | INFO    | Optimization starting...
20:49:27 | INFO    | Gurobi Optimizer version 12.0.0 build v12.0.0rc1 (win64 - Windows 10.0 (19045.2))
20:49:27 | INFO    | 
20:49:27 | INFO    | CPU model: 12th Gen Intel(R) Core(TM) i7-12650H, instruction set [SSE2|AVX|AVX2]
20:49:27 | INFO    | Thread count: 10 physical cores, 16 logical processors, using up to 16 threads
20:49:27 | INFO    | 
20:49:27 | INFO    | Non-default parameters:
20:49:27 | INFO    | TimeLimit  600
20:49:27 | INFO    | MIPGap  0.01
20:49:27 | INFO    | Presolve  2
20:49:27 | INFO    | 
20:49:27 | INFO    | Optimize a model with 24417 rows, 7277 columns and 122579 nonzeros
20:49:27 | INFO    | Model fingerprint: 0x61777f67
20:49:27 | INFO    | Variable types: 1157 continuous, 6120 integer (5895 binary)
20:49:27 | INFO    | Coefficient statistics:
20:49:27 | INFO    |   Matrix range     [1e+00, 5e+02]
20:49:27 | INFO    |   Objective range  [1e-03, 1e+00]
20:49:27 | INFO    |   Bounds range     [1e+00, 3e+01]
20:49:27 | INFO    |   RHS range        [1e+00, 1e+04]
20:49:27 | INFO    | Presolve removed 21423 rows and 6258 columns
20:49:27 | INFO    | Presolve time: 0.12s
20:49:27 | INFO    | Presolved: 2994 rows, 1019 columns, 16934 nonzeros
20:49:27 | INFO    | Variable types: 317 continuous, 702 integer (630 binary)
20:49:27 | INFO    | Root relaxation presolve removed 27 rows and 0 columns
20:49:27 | INFO    | Root relaxation presolved: 2967 rows, 1037 columns, 16765 nonzeros
20:49:27 | INFO    | 
20:49:27 | INFO    | 
20:49:27 | INFO    | Root relaxation: objective 0.000000e+00, 314 iterations, 0.02 seconds (0.03 work units)
20:49:27 | INFO    | 
20:49:27 | INFO    |     Nodes    |    Current Node    |     Objective Bounds      |     Work
20:49:27 | INFO    |  Expl Unexpl |  Obj  Depth IntInf | Incumbent    BestBd   Gap | It/Node Time
20:49:27 | INFO    | 
20:49:27 | INFO    |      0     0    0.00000    0   66          -    0.00000      -     -    0s
20:49:27 | INFO    | H    0     0                    32943.999000    0.00000   100%     -    0s
20:49:27 | INFO    | H    0     0                     190.0980000    0.00000   100%     -    0s
20:49:27 | INFO    |      0     0    0.00000    0   69  190.09800    0.00000   100%     -    0s
20:49:27 | INFO    | H    0     0                     158.1630000    0.00000   100%     -    0s
20:49:27 | INFO    |      0     0    0.00000    0   73  158.16300    0.00000   100%     -    0s
20:49:27 | INFO    | H    0     0                     153.1450000    0.00000   100%     -    0s
20:49:27 | INFO    |      0     0    0.00000    0   42  153.14500    0.00000   100%     -    0s
20:49:27 | INFO    | H    0     0                      86.1660000    0.00000   100%     -    0s
20:49:27 | INFO    |      0     0    0.00000    0   42   86.16600    0.00000   100%     -    0s
20:49:27 | INFO    |      0     0    0.00000    0   63   86.16600    0.00000   100%     -    0s
20:49:27 | INFO    |      0     0    0.00000    0   73   86.16600    0.00000   100%     -    0s
20:49:28 | INFO    |      0     0    0.00403    0   80   86.16600    0.00403   100%     -    0s
20:49:28 | INFO    |      0     0    0.00403    0   80   86.16600    0.00403   100%     -    0s
20:49:28 | INFO    |      0     0    0.00820    0   84   86.16600    0.00820   100%     -    0s
20:49:28 | INFO    |      0     0    0.00820    0   79   86.16600    0.00820   100%     -    0s
20:49:28 | INFO    |      0     0    0.01200    0   57   86.16600    0.01200   100%     -    0s
20:49:28 | INFO    |      0     0    0.01200    0   71   86.16600    0.01200   100%     -    0s
20:49:28 | INFO    |      0     0    0.01201    0  133   86.16600    0.01201   100%     -    0s
20:49:28 | INFO    | H    0     0                      84.1260000    0.01201   100%     -    0s
20:49:28 | INFO    | H    0     0                      83.1200000    0.01201   100%     -    0s
20:49:28 | INFO    | H    0     0                      80.1030000    0.01201   100%     -    0s
20:49:28 | INFO    |      0     0    0.01201    0  129   80.10300    0.01201   100%     -    0s
20:49:28 | INFO    |      0     0    0.01400    0   90   80.10300    0.01400   100%     -    0s
20:49:28 | INFO    |      0     0    0.01400    0   74   80.10300    0.01400   100%     -    0s
20:49:28 | INFO    |      0     0    0.01400    0   74   80.10300    0.01400   100%     -    0s
20:49:28 | INFO    |      0     0    0.01400    0   74   80.10300    0.01400   100%     -    0s
20:49:28 | INFO    |      0     0    0.01400    0   71   80.10300    0.01400   100%     -    1s
20:49:28 | INFO    |      0     0    0.01400    0   73   80.10300    0.01400   100%     -    1s
20:49:28 | INFO    | H    0     0                      80.0960000    0.01400   100%     -    1s
20:49:28 | INFO    |      0     0    0.01400    0   63   80.09600    0.01400   100%     -    1s
20:49:28 | INFO    |      0     0    0.01400    0   65   80.09600    0.01400   100%     -    1s
20:49:28 | INFO    |      0     0    0.01500    0   54   80.09600    0.01500   100%     -    1s
20:49:28 | INFO    |      0     0    0.01500    0   57   80.09600    0.01500   100%     -    1s
20:49:28 | INFO    |      0     0    0.01500    0   70   80.09600    0.01500   100%     -    1s
20:49:28 | INFO    |      0     0    0.01500    0   71   80.09600    0.01500   100%     -    1s
20:49:29 | INFO    |      0     0    0.01500    0   47   80.09600    0.01500   100%     -    1s
20:49:29 | INFO    |      0     0    0.01500    0   80   80.09600    0.01500   100%     -    1s
20:49:29 | INFO    |      0     0    0.01500    0   46   80.09600    0.01500   100%     -    1s
20:49:29 | INFO    |      0     0    0.01500    0   46   80.09600    0.01500   100%     -    1s
20:49:29 | INFO    |      0     2    0.01500    0   46   80.09600    0.01500   100%     -    2s
20:49:29 | INFO    | H   64    92                      73.0970000    0.01500   100%   143    2s
20:49:32 | INFO    |   2814  1170    0.96274   12   49   73.09700    0.01500   100%  40.1    5s
20:49:37 | INFO    |   5050  1147 infeasible   31        73.09700    0.01516   100%  63.1   10s
20:49:38 | INFO    | H 6081  1014                      72.0920000    0.01588   100%  62.8   11s
20:49:39 | INFO    | H 7404  1251                      71.0890000    0.02613   100%  61.9   11s
20:49:39 | INFO    | H 7678  1167                      67.0850000    0.03012   100%  61.6   11s
20:49:42 | INFO    |  11732  1714    0.07174   45   17   67.08500    0.04700   100%  58.3   15s
20:49:47 | INFO    |  18064  1523 infeasible   37        67.08500    1.17354  98.3%  53.2   20s
20:49:52 | INFO    |  24729   709     cutoff   42        67.08500   44.03863  34.4%  49.8   25s
20:49:56 | INFO    | 
20:49:56 | INFO    | Cutting planes:
20:49:56 | INFO    |   Learned: 32
20:49:56 | INFO    |   Gomory: 20
20:49:56 | INFO    |   Lift-and-project: 1
20:49:56 | INFO    |   Cover: 345
20:49:56 | INFO    |   Implied bound: 276
20:49:56 | INFO    |   Projected implied bound: 30
20:49:56 | INFO    |   Clique: 21
20:49:56 | INFO    |   MIR: 282
20:49:56 | INFO    |   Mixing: 2
20:49:56 | INFO    |   StrongCG: 8
20:49:56 | INFO    |   Flow cover: 1118
20:49:56 | INFO    |   Inf proof: 13
20:49:56 | INFO    |   Zero half: 27
20:49:56 | INFO    |   RLT: 92
20:49:56 | INFO    |   Relax-and-lift: 175
20:49:56 | INFO    |   PSD: 1
20:49:56 | INFO    | 
20:49:56 | INFO    | Explored 30772 nodes (1475346 simplex iterations) in 29.44 seconds (25.79 work units)
20:49:56 | INFO    | Thread count was 16 (of 16 available processors)
20:49:56 | INFO    | 
20:49:56 | INFO    | Solution count 10: 67.085 67.085 71.089 ... 86.166
20:49:56 | INFO    | 
20:49:56 | INFO    | Optimal solution found (tolerance 1.00e-02)
20:49:56 | INFO    | Best objective 6.708500000000e+01, best bound 6.708500000000e+01, gap 0.0000%
20:49:56 | INFO    | Solution found | route_duration=67.00 | total_wait=85.00
20:49:56 | INFO    | Objective=67.09 | runtime=29.44s | MIP Gap=0.00%
20:49:56 | INFO    | Generating Excel output | C:\Users\Asus\Documents\GitHub\logistics-model2\internal-logistics-model2\results\MR_MV_RD\case2\result_MR_MV_RD_case2_P5_R3_eps9999_2026_05_04_20_49.xlsx
20:49:57 | INFO    | Excel output written | 12 sheets | C:\Users\Asus\Documents\GitHub\logistics-model2\internal-logistics-model2\results\MR_MV_RD\case2\result_MR_MV_RD_case2_P5_R3_eps9999_2026_05_04_20_49.xlsx
20:49:57 | INFO    | Master Pareto updated | 10 total rows | C:\Users\Asus\Documents\GitHub\logistics-model2\internal-logistics-model2\results\master_pareto.xlsx
20:49:57 | INFO    | Run complete | run_id=MR_MV_RD_case2_P5_R3_eps9999
